10
2147483647 14 98 39 23 44 99 84 75 97 
14 2147483647 90 8 35 21 41 2 32 10 
98 90 2147483647 68 30 98 98 24 73 99 
39 8 68 2147483647 91 71 91 53 49 92 
23 35 30 91 2147483647 3 98 36 40 64 
44 21 98 71 3 2147483647 95 89 11 57 
99 41 98 91 98 95 2147483647 67 17 47 
84 2 24 53 36 89 67 2147483647 31 89 
75 32 73 49 40 11 17 31 2147483647 3 
97 10 99 92 64 57 47 89 3 2147483647 
